# Generated by Phonopy, based on Punitcell.inp
# Original configuration with the generated supercell for comparison
&FORCE_EVAL
   METHOD QS
   STRESS_TENSOR ANALYTICAL
   &DFT
      BASIS_SET_FILE_NAME /usr_home/eugene/cp2k/Potentials/GTH_BASIS_SETS
      BASIS_SET_FILE_NAME /usr_home/eugene/cp2k/Potentials/BASIS_MOLOPT_UZH
      POTENTIAL_FILE_NAME /usr_home/eugene/cp2k/Potentials/GTH_POTENTIALS
      &MGRID
         CUTOFF 1000.0
         REL_CUTOFF 60.0
      &END MGRID
      &QS
         EPS_DEFAULT 1e-15
         EXTRAPOLATION PS
         METHOD GPW
      &END QS
      &SCF
         SCF_GUESS ATOMIC
         EPS_SCF 1e-08
         MAX_SCF 50
         &DIAGONALIZATION .FALSE.
         &END DIAGONALIZATION
         &MIXING
            ALPHA 0.3
            METHOD BROYDEN_MIXING
            NBUFFER 8
         &END MIXING
         &OT .TRUE.
            MINIMIZER CG
            LINESEARCH 3PNT
            PRECONDITIONER FULL_SINGLE_INVERSE
            ENERGY_GAP 0.1
         &END OT
         &OUTER_SCF
            MAX_SCF 50
            EPS_SCF 1e-08
         &END OUTER_SCF
      &END SCF
      &XC
         &XC_FUNCTIONAL
            &PBE
               SCALE_X 1.0
               SCALE_C 1.0
            &END PBE
         &END XC_FUNCTIONAL
         &XC_GRID
            XC_DERIV NN50_SMOOTH
         &END XC_GRID
      &END XC
      &PRINT
         &MOMENTS ON
         &END MOMENTS
      &END PRINT
   &END DFT
   &PROPERTIES
    &LINRES
      EPS 1.0E-6
      MAX_ITER 100
      PRECONDITIONER FULL_SINGLE_INVERSE
      &POLAR on
       # DO_RAMAN TRUE
        &PRINT
          &POLAR_MATRIX ON
            &EACH
              QS_SCF 1
            &END EACH
          &END POLAR_MATRIX
        &END PRINT
      &END POLAR
    &END LINRES
   &END PROPERTIES
   &SUBSYS
      &CELL
         A 6.540261011526532 0.0 0.0
         B -3.270130505763266 5.6640321833628855 0.0
         C 0.0 0.0 10.30974
         PERIODIC XYZ
      &END CELL
      &TOPOLOGY
         COORD_FILE_FORMAT XYZ
         COORD_FILE_NAME ./born.xyz
      &END TOPOLOGY
      &PRINT
         &ATOMIC_COORDINATES ON
         &END ATOMIC_COORDINATES
      &END PRINT
      &KIND Ga
         BASIS_SET TZVP-MOLOPT-PBE-GTH-q13
         POTENTIAL GTH-PBE-q13
      &END KIND
      &KIND N
         BASIS_SET TZVP-MOLOPT-PBE-GTH-q5
         POTENTIAL GTH-PBE-q5
      &END KIND
   &END SUBSYS
   &PRINT
      &STRESS_TENSOR ON
         FILENAME __STD_OUT__
      &END STRESS_TENSOR
      &FORCES
         FILENAME forces
      &END FORCES
   &END PRINT
&END FORCE_EVAL
&GLOBAL
   PROJECT_NAME GaN-PHONON-supercell
   PRINT_LEVEL LOW
   RUN_TYPE ENERGY_FORCE
   WALLTIME 40:55:00
&END GLOBAL
