# Generated by Phonopy
&GLOBAL
   PROJECT_NAME GaN-PHONON
   PRINT_LEVEL LOW
   RUN_TYPE ENERGY_FORCE
   WALLTIME 40:55:00
&END GLOBAL
&FORCE_EVAL
   METHOD QS
   STRESS_TENSOR ANALYTICAL
   &PRINT
      &FORCES
         FILENAME forces
      &END FORCES
      &STRESS_TENSOR ON
         FILENAME __STD_OUT__
      &END STRESS_TENSOR
   &END PRINT
   &SUBSYS
      &KIND N
         BASIS_SET TZVP-MOLOPT-PBE-GTH-q5
         POTENTIAL GTH-PBE-q5
      &END KIND
      &KIND Ga
         BASIS_SET TZVP-MOLOPT-PBE-GTH-q13
         POTENTIAL GTH-PBE-q13
      &END KIND
      &PRINT
         &ATOMIC_COORDINATES ON
         &END ATOMIC_COORDINATES
      &END PRINT
      &COORD
         Ga 0.0 1.8880107277876284 5.154859662600002
         Ga 1.6350652528816334 0.9440053638938142 2.5774246626000026
         N 0.0 1.8880107277876284 1.951140761000001
         N 1.6350652528816334 0.9440053638938142 4.528575761000001
      &END COORD
      &CELL
         A 3.270130505763266 0.0 0.0
         B -1.635065252881633 2.8320160916814427 0.0
         C 0.0 0.0 5.15487
         PERIODIC XYZ
      &END CELL
   &END SUBSYS
   &DFT
      BASIS_SET_FILE_NAME /usr_home/eugene/cp2k/Potentials/GTH_BASIS_SETS
      BASIS_SET_FILE_NAME /usr_home/eugene/cp2k/Potentials/BASIS_MOLOPT_UZH
      POTENTIAL_FILE_NAME /usr_home/eugene/cp2k/Potentials/GTH_POTENTIALS
      &PRINT
      &END PRINT
      &XC
         &XC_GRID
            XC_DERIV NN50_SMOOTH
         &END XC_GRID
         &XC_FUNCTIONAL
            &PBE
               SCALE_X 1.0
               SCALE_C 1.0
            &END PBE
         &END XC_FUNCTIONAL
      &END XC
      &SCF
         SCF_GUESS ATOMIC
         EPS_SCF 1e-08
         MAX_SCF 50
         &OUTER_SCF
            MAX_SCF 50
            EPS_SCF 1e-08
         &END OUTER_SCF
         &OT .TRUE.
            MINIMIZER CG
            LINESEARCH 3PNT
            PRECONDITIONER FULL_SINGLE_INVERSE
            ENERGY_GAP 0.1
         &END OT
         &MIXING
            ALPHA 0.3
            METHOD BROYDEN_MIXING
            NBUFFER 8
         &END MIXING
         &DIAGONALIZATION .FALSE.
         &END DIAGONALIZATION
      &END SCF
      &QS
         EPS_DEFAULT 1e-15
         EXTRAPOLATION PS
         METHOD GPW
      &END QS
      &MGRID
         CUTOFF 1000.0
         REL_CUTOFF 60.0
      &END MGRID
   &END DFT
&END FORCE_EVAL
