# Generated by Phonopy, based on Punitcell.inp
# Original configuration with the generated supercell for comparison
&FORCE_EVAL
   METHOD QS
   STRESS_TENSOR ANALYTICAL
   &DFT
      BASIS_SET_FILE_NAME /usr_home/eugene/cp2k/Potentials/GTH_BASIS_SETS
      BASIS_SET_FILE_NAME /usr_home/eugene/cp2k/Potentials/BASIS_MOLOPT_UZH
      POTENTIAL_FILE_NAME /usr_home/eugene/cp2k/Potentials/GTH_POTENTIALS
      &MGRID
         CUTOFF 1000.0
         REL_CUTOFF 60.0
      &END MGRID
      &QS
         EPS_DEFAULT 1e-15
         EXTRAPOLATION PS
         METHOD GPW
      &END QS
      &SCF
         SCF_GUESS ATOMIC
         EPS_SCF 1e-08
         MAX_SCF 50
         &DIAGONALIZATION .FALSE.
         &END DIAGONALIZATION
         &MIXING
            ALPHA 0.3
            METHOD BROYDEN_MIXING
            NBUFFER 8
         &END MIXING
         &OT .TRUE.
            MINIMIZER CG
            LINESEARCH 3PNT
            PRECONDITIONER FULL_SINGLE_INVERSE
            ENERGY_GAP 0.1
         &END OT
         &OUTER_SCF
            MAX_SCF 50
            EPS_SCF 1e-08
         &END OUTER_SCF
      &END SCF
      &XC
         &XC_FUNCTIONAL
            &PBE
               SCALE_X 1.0
               SCALE_C 1.0
            &END PBE
         &END XC_FUNCTIONAL
         &XC_GRID
            XC_DERIV NN50_SMOOTH
         &END XC_GRID
      &END XC
      &PRINT
      &END PRINT
   &END DFT
   &SUBSYS
      &CELL
         A 6.540261011526532 0.0 0.0
         B -3.270130505763266 5.6640321833628855 0.0
         C 0.0 0.0 10.30974
         PERIODIC XYZ
      &END CELL
      &COORD
         Ga 0.0 1.8880107277876284 5.154859662600002
         Ga 3.270130505763266 1.8880107277876284 5.154859662600002
         Ga -1.6350652528816327 4.720026819469071 5.154859662600002
         Ga 1.635065252881633 4.720026819469071 5.154859662600002
         Ga 0.0 1.8880107277876284 10.3097296626
         Ga 3.270130505763266 1.8880107277876284 10.3097296626
         Ga -1.6350652528816327 4.720026819469071 10.3097296626
         Ga 1.635065252881633 4.720026819469071 10.3097296626
         Ga 1.6350652528816334 0.9440053638938142 2.5774246626000026
         Ga 4.905195758644899 0.9440053638938142 2.5774246626000026
         Ga 4.440892098500626e-16 3.7760214555752567 2.5774246626000026
         Ga 3.2701305057632664 3.7760214555752567 2.5774246626000026
         Ga 1.6350652528816334 0.9440053638938142 7.732294662600003
         Ga 4.905195758644899 0.9440053638938142 7.732294662600003
         Ga 4.440892098500626e-16 3.7760214555752567 7.732294662600003
         Ga 3.2701305057632664 3.7760214555752567 7.732294662600003
         N 0.0 1.8880107277876284 1.951140761000001
         N 3.270130505763266 1.8880107277876284 1.951140761000001
         N -1.6350652528816327 4.720026819469071 1.951140761000001
         N 1.635065252881633 4.720026819469071 1.951140761000001
         N 0.0 1.8880107277876284 7.106010761000001
         N 3.270130505763266 1.8880107277876284 7.106010761000001
         N -1.6350652528816327 4.720026819469071 7.106010761000001
         N 1.635065252881633 4.720026819469071 7.106010761000001
         N 1.6350652528816334 0.9440053638938142 4.528575761000001
         N 4.905195758644899 0.9440053638938142 4.528575761000001
         N 4.440892098500626e-16 3.7760214555752567 4.528575761000001
         N 3.2701305057632664 3.7760214555752567 4.528575761000001
         N 1.6350652528816334 0.9440053638938142 9.683445761
         N 4.905195758644899 0.9440053638938142 9.683445761
         N 4.440892098500626e-16 3.7760214555752567 9.683445761
         N 3.2701305057632664 3.7760214555752567 9.683445761
      &END COORD
      &PRINT
         &ATOMIC_COORDINATES ON
         &END ATOMIC_COORDINATES
      &END PRINT
      &KIND Ga
         BASIS_SET TZVP-MOLOPT-PBE-GTH-q13
         POTENTIAL GTH-PBE-q13
      &END KIND
      &KIND N
         BASIS_SET TZVP-MOLOPT-PBE-GTH-q5
         POTENTIAL GTH-PBE-q5
      &END KIND
   &END SUBSYS
   &PRINT
      &STRESS_TENSOR ON
         FILENAME __STD_OUT__
      &END STRESS_TENSOR
      &FORCES
         FILENAME forces
      &END FORCES
   &END PRINT
&END FORCE_EVAL
&GLOBAL
   PROJECT_NAME GaN-PHONON-supercell
   PRINT_LEVEL LOW
   RUN_TYPE ENERGY_FORCE
   WALLTIME 40:55:00
&END GLOBAL
